p cnf 282 395
a 1 2 3 4 5 6 7 8 9 10 11 12 13 14 15 16 18 19 20 21 22 23 24 25 26 27 28 29 30 31 32 33 34 35 36 37 38 39 40 42 43 44 45 46 47 48 49 50 52 53 54 55 57 58 59 60 61 62 0
e 17 41 51 56 63 64 65 66 67 68 69 70 71 72 73 74 75 76 77 78 79 80 81 82 83 84 85 86 87 88 89 90 91 92 93 94 95 96 97 98 99 100 101 102 103 104 105 106 107 108 109 110 111 112 113 114 115 116 117 118 119 120 121 122 123 124 125 126 127 128 129 130 131 132 133 134 135 136 137 138 139 140 141 142 143 144 145 146 147 148 149 150 151 152 153 154 155 156 157 158 159 160 161 162 163 164 165 166 167 168 169 170 171 172 173 174 175 176 177 178 179 180 181 182 183 184 185 186 187 188 189 190 191 192 193 194 195 196 197 198 199 200 201 202 203 204 205 206 207 208 209 210 211 212 213 214 215 216 217 218 219 220 221 222 223 224 225 226 227 228 229 230 231 232 233 234 235 236 237 238 239 240 241 242 243 244 245 246 247 248 249 250 251 252 253 254 255 256 257 258 259 260 261 262 263 264 265 266 267 268 269 270 271 272 273 274 275 276 277 278 279 280 281 282 0
-282 0
282 -236 0
282 -260 0
282 -274 0
282 -281 0
3 2 1 -235 -280 281 0
280 -279 0
280 -272 0
280 -233 0
280 -258 0
-82 -81 -80 -79 -278 279 0
278 -275 0
278 -276 0
278 -277 0
32 31 30 29 33 35 34 -112 -122 -121 -111 277 0
25 24 23 22 21 20 26 -119 -118 -109 -108 276 0
13 16 15 14 12 11 10 -116 -115 -106 -105 275 0
2 1 62 -235 -273 274 0
273 -265 0
273 -215 0
273 -250 0
273 -272 0
-271 -268 272 0
271 -269 0
271 -270 0
271 -219 0
271 -220 0
271 -221 0
-82 -81 -80 -79 -227 -129 270 0
-82 -81 -80 -79 -255 -93 269 0
268 -266 0
268 -206 0
268 -207 0
268 -267 0
268 -208 0
-82 -81 -80 -79 -114 -204 267 0
-82 -81 -80 -79 -146 -246 266 0
-82 -81 -80 -79 -264 265 0
264 -261 0
264 -262 0
264 -263 0
32 29 33 35 34 50 46 -91 -90 -139 -138 263 0
25 24 23 20 26 49 43 -88 -87 -136 -135 262 0
13 16 15 14 10 39 48 -85 -84 -133 -132 261 0
3 2 62 -235 -259 260 0
259 -241 0
259 -196 0
259 -250 0
259 -258 0
-257 -253 258 0
257 -254 0
257 -256 0
257 -224 0
257 -225 0
257 -226 0
-82 -81 -80 -79 -173 -255 256 0
255 -229 0
255 -230 0
255 -231 0
-82 -81 -80 -79 -190 -222 254 0
253 -251 0
253 -252 0
253 -147 0
253 -152 0
253 -153 0
-82 -81 -80 -79 -151 -131 252 0
-82 -81 -80 -79 -146 -242 251 0
-249 -245 250 0
249 -247 0
249 -248 0
249 -201 0
249 -202 0
249 -203 0
-82 -81 -80 -79 -181 -209 248 0
-82 -81 -80 -79 -173 -246 247 0
246 -211 0
246 -212 0
246 -213 0
245 -243 0
245 -244 0
245 -104 0
245 -125 0
245 -130 0
-82 -81 -80 -79 -124 -154 244 0
-82 -81 -80 -79 -93 -242 243 0
242 -160 0
242 -161 0
242 -162 0
-82 -81 -80 -79 -240 241 0
240 -237 0
240 -238 0
240 -239 0
29 35 34 61 50 46 58 -101 -100 -171 -170 239 0
25 20 26 49 43 60 57 -168 -167 -98 -97 238 0
16 15 10 39 55 48 59 -165 -164 -95 -94 237 0
3 1 62 -235 -234 236 0
235 -62 0
235 -3 0
235 -2 0
235 -1 0
234 -83 0
234 -196 0
234 -215 0
234 -233 0
-232 -218 233 0
232 -223 0
232 -228 0
232 -229 0
232 -230 0
232 -231 0
-82 -81 -80 -79 -158 231 0
-82 -81 -80 -79 -181 -103 230 0
-82 -81 -80 -79 -124 -141 229 0
-82 -81 -80 -79 -227 -103 228 0
227 -224 0
227 -225 0
227 -226 0
-82 -81 -80 -79 -181 226 0
-82 -81 -80 -79 -124 -190 225 0
-82 -81 -80 -79 -173 -158 224 0
-82 -81 -80 -79 -141 -222 223 0
222 -219 0
222 -220 0
222 -221 0
-82 -81 -80 -79 -124 221 0
-82 -81 -80 -79 -181 -129 220 0
-82 -81 -80 -79 -158 -93 219 0
218 -174 0
218 -175 0
218 -216 0
218 -217 0
218 -176 0
-82 -81 -80 -79 -114 -198 217 0
-82 -81 -80 -79 -151 -186 216 0
-214 -200 215 0
214 -205 0
214 -210 0
214 -211 0
214 -212 0
214 -213 0
-82 -81 -80 -79 -141 213 0
-82 -81 -80 -79 -158 -151 212 0
-82 -81 -80 -79 -190 -103 211 0
-82 -81 -80 -79 -158 -209 210 0
209 -206 0
209 -207 0
209 -208 0
-82 -81 -80 -79 -151 208 0
-82 -81 -80 -79 -190 -114 207 0
-82 -81 -80 -79 -141 -146 206 0
-82 -81 -80 -79 -103 -204 205 0
204 -201 0
204 -202 0
204 -203 0
-82 -81 -80 -79 -190 203 0
-82 -81 -80 -79 -181 -151 202 0
-82 -81 -80 -79 -173 -141 201 0
200 -197 0
200 -199 0
200 -183 0
200 -184 0
200 -185 0
-82 -81 -80 -79 -129 -198 199 0
198 -192 0
198 -193 0
198 -194 0
-82 -81 -80 -79 -124 -177 197 0
-195 -163 196 0
195 -182 0
195 -191 0
195 -192 0
195 -193 0
195 -194 0
-82 -81 -80 -79 -173 194 0
-82 -81 -80 -79 -181 -146 193 0
-82 -81 -80 -79 -190 -93 192 0
-82 -81 -80 -79 -190 -186 191 0
190 -187 0
190 -188 0
190 -189 0
33 35 34 61 50 46 45 -171 -170 -139 -138 189 0
25 24 26 49 43 60 42 -168 -167 -136 -135 188 0
16 15 14 39 38 48 59 -165 -164 -133 -132 187 0
186 -183 0
186 -184 0
186 -185 0
-82 -81 -80 -79 -93 185 0
-82 -81 -80 -79 -124 -146 184 0
-82 -81 -80 -79 -173 -129 183 0
-82 -81 -80 -79 -181 -177 182 0
181 -178 0
181 -179 0
181 -180 0
31 33 35 34 61 50 45 -171 -170 -122 -121 180 0
25 24 22 26 49 60 42 -168 -167 -119 -118 179 0
16 15 14 12 38 48 59 -165 -164 -116 -115 178 0
177 -174 0
177 -175 0
177 -176 0
-82 -81 -80 -79 -146 176 0
-82 -81 -80 -79 -93 -151 175 0
-82 -81 -80 -79 -173 -114 174 0
173 -166 0
173 -169 0
173 -172 0
33 34 54 61 50 46 45 -171 -170 -76 -75 172 0
171 56 0
171 9 0
170 -56 0
170 6 0
25 24 53 49 43 60 42 -168 -167 -70 -69 169 0
168 56 0
168 7 0
167 -56 0
167 5 0
15 14 39 38 52 48 59 -66 -65 -165 -164 166 0
165 56 0
165 8 0
164 -56 0
164 4 0
163 -142 0
163 -159 0
163 -160 0
163 -161 0
163 -162 0
-82 -81 -80 -79 -103 162 0
-82 -81 -80 -79 -141 -129 161 0
-82 -81 -80 -79 -158 -114 160 0
-82 -81 -80 -79 -158 -154 159 0
158 -155 0
158 -156 0
158 -157 0
32 31 33 35 34 50 45 -122 -121 -74 -73 157 0
25 24 23 22 26 -71 49 42 -119 -118 -68 156 0
13 16 15 14 12 38 48 -64 -116 -115 -63 155 0
154 -147 0
154 -152 0
154 -153 0
-82 -81 -80 -79 -114 153 0
-82 -81 -80 -79 -129 -151 152 0
151 -148 0
151 -149 0
151 -150 0
32 30 33 35 46 45 47 -112 -139 -138 -111 150 0
24 23 21 26 43 44 42 -136 -135 -109 -108 149 0
13 16 14 11 39 38 40 -133 -132 -106 -105 148 0
-82 -81 -80 -79 -103 -146 147 0
146 -143 0
146 -144 0
146 -145 0
32 30 33 35 34 46 45 -112 -76 -75 -111 145 0
25 24 23 21 26 43 42 -70 -69 -109 -108 144 0
13 16 15 14 11 39 38 -66 -65 -106 -105 143 0
-82 -81 -80 -79 -141 -131 142 0
141 -134 0
141 -137 0
141 -140 0
32 33 34 54 50 46 45 -139 -138 -74 -73 140 0
139 41 0
139 37 0
138 -41 0
138 36 0
25 24 23 53 -71 49 43 42 -136 -135 -68 137 0
136 41 0
136 28 0
135 -41 0
135 27 0
13 15 14 39 38 52 48 -64 -133 -132 -63 134 0
133 41 0
133 19 0
132 -41 0
132 18 0
131 -104 0
131 -125 0
131 -130 0
-82 -81 -80 -79 -129 130 0
129 -126 0
129 -127 0
129 -128 0
32 35 34 50 46 45 58 -101 -100 -91 -90 128 0
25 23 26 49 43 57 42 -88 -87 -98 -97 127 0
13 16 15 39 38 55 48 -85 -84 -95 -94 126 0
-82 -81 -80 -79 -124 -114 125 0
124 -117 0
124 -120 0
124 -123 0
32 31 33 34 54 50 45 -122 -121 -91 -90 123 0
122 37 0
122 17 0
121 36 0
121 -17 0
25 24 23 22 53 49 42 -119 -118 -88 -87 120 0
119 28 0
119 17 0
118 27 0
118 -17 0
13 15 14 12 38 52 48 -116 -115 -85 -84 117 0
116 18 0
116 -17 0
115 17 0
115 19 0
114 -107 0
114 -110 0
114 -113 0
32 30 35 34 46 45 58 -101 -100 -112 -111 113 0
112 17 0
112 9 0
111 6 0
111 -17 0
25 23 21 26 43 57 42 -98 -97 -109 -108 110 0
109 17 0
109 7 0
108 5 0
108 -17 0
13 16 15 11 39 38 55 -95 -94 -106 -105 107 0
106 8 0
106 17 0
105 4 0
105 -17 0
-82 -81 -80 -79 -103 -93 104 0
103 -96 0
103 -99 0
103 -102 0
32 35 50 46 45 58 47 -101 -100 -74 -73 102 0
101 -56 0
101 36 0
100 56 0
100 37 0
23 26 -71 49 43 57 44 42 -68 -98 -97 99 0
98 56 0
98 28 0
97 -56 0
97 27 0
13 16 39 38 55 48 40 -64 -63 -95 -94 96 0
95 56 0
95 19 0
94 -56 0
94 18 0
93 -86 0
93 -89 0
93 -92 0
32 33 35 50 46 45 47 -91 -90 -76 -75 92 0
91 41 0
91 9 0
90 -41 0
90 6 0
24 23 26 49 43 44 42 -88 -87 -70 -69 89 0
88 41 0
88 7 0
87 -41 0
87 5 0
13 16 14 39 38 48 40 -66 -65 -85 -84 86 0
85 41 0
85 8 0
84 -41 0
84 4 0
-82 -81 -80 -79 -78 83 0
82 7 0
82 -9 0
81 8 0
81 -7 0
80 6 0
80 -5 0
79 5 0
79 -4 0
78 -67 0
78 -72 0
78 -77 0
32 29 33 35 34 50 46 -76 -75 -74 -73 77 0
76 51 0
76 37 0
75 -51 0
75 36 0
74 51 0
74 9 0
73 -51 0
73 6 0
25 24 23 20 26 -71 49 43 -70 -69 -68 72 0
71 51 0
71 7 0
70 51 0
70 28 0
69 -51 0
69 27 0
68 -51 0
68 5 0
13 16 15 14 10 39 48 -66 -65 -64 -63 67 0
66 -51 0
66 18 0
65 51 0
65 19 0
64 -51 0
64 4 0
63 51 0
63 8 0
